
Gurobi 10.0.1 (linux64) logging started Sun Nov 26 16:17:34 2023

Set parameter LogFile to value "ArtificialInstance/ExperimentV2/S2T5K3/AdSp/gurobiDoSp89.txt"
Gurobi Optimizer version 10.0.1 build v10.0.1rc0 (linux64)

CPU model: AMD EPYC 7H12 64-Core Processor, instruction set [SSE2|AVX|AVX2]
Thread count: 128 physical cores, 128 logical processors, using up to 32 threads

Academic license 656792 - for non-commercial use only - registered to b.___@student.vu.nl
Optimize a model with 16350 rows, 15138 columns and 58670 nonzeros
Model fingerprint: 0xa40e865c
Variable types: 0 continuous, 15138 integer (15138 binary)
Coefficient statistics:
  Matrix range     [1e+00, 1e+00]
  Objective range  [2e+00, 2e+01]
  Bounds range     [1e+00, 1e+00]
  RHS range        [1e+00, 1e+00]
Presolve removed 12713 rows and 11859 columns
Presolve time: 0.23s
Presolved: 3637 rows, 3279 columns, 12864 nonzeros
Variable types: 0 continuous, 3279 integer (3279 binary)

Root relaxation: objective 8.737054e+01, 533 iterations, 0.01 seconds (0.01 work units)

    Nodes    |    Current Node    |     Objective Bounds      |     Work
 Expl Unexpl |  Obj  Depth IntInf | Incumbent    BestBd   Gap | It/Node Time

*    0     0               0      87.3705410   87.37054  0.00%     -    0s

Explored 1 nodes (533 simplex iterations) in 0.28 seconds (0.19 work units)
Thread count was 32 (of 128 available processors)

Solution count 1: 87.3705 

Optimal solution found (tolerance 1.00e-04)
Best objective 8.737054103463e+01, best bound 8.737054103463e+01, gap 0.0000%
